4124
4198
4243
4205
4203
4200
4173
4142
4210
4158
4218
4101
4221
4100
4148
4145
4229
4151
4162
4178
4174
4210
4222
4156
4217
4220
4187
4189
4239
4192
4206
4193
4177
4204
4205
4168
4146
4242
4153
4187
4189
4179
4145
4235
4195
4178
4102
4163
4232
4196
4164
4109
4188
4173
4204
4159
4159
4236
4113
4252
4161
4264
4195
4164
4208
4249
4202
4177
4203
4217
4294
4192
4205
4201
4179
4212
4130
4190
4240
4218
4081
4210
4222
4253
4233
4188
4200
4216
4180
4202
4229
4185
4227
4196
4177
4164
4224
4147
4217
4197
